[1, 280, 2, 242, 241, 244, 245, 246, 240, 239, 238, 237, 236, 235, 234, 233, 232, 231, 230, 229, 228, 227, 226, 225, 224, 223, 219, 218, 217, 220, 222, 221, 216, 213, 214, 215, 212, 211, 210, 207, 208, 206, 205, 204, 203, 202, 143, 144, 145, 146, 147, 142, 141, 140, 266, 265, 264, 263, 262, 261, 260, 273, 274, 275, 276, 272, 271, 15, 13, 14, 12, 11, 10, 9, 8, 7, 6, 5, 4, 277, 278, 279, 3, 243, 247, 250, 251, 249, 248, 256, 255, 252, 253, 254, 257, 258, 259, 209, 268, 267, 137, 138, 139, 149, 148, 150, 179, 178, 177, 176, 181, 182, 183, 184, 187, 185, 188, 189, 186, 190, 191, 192, 194, 195, 196, 197, 198, 200, 201, 199, 193, 180, 152, 151, 156, 153, 155, 154, 129, 128, 21, 130, 131, 132, 133, 18, 17, 16, 135, 134, 270, 269, 136, 20, 19, 24, 23, 25, 22, 26, 27, 28, 29, 30, 31, 32, 33, 34, 36, 35, 37, 38, 39, 40, 41, 42, 43, 46, 55, 54, 53, 48, 47, 49, 52, 51, 50, 69, 68, 57, 58, 59, 44, 45, 56, 169, 170, 171, 172, 173, 174, 107, 106, 105, 104, 103, 102, 93, 98, 97, 96, 95, 94, 83, 84, 85, 86, 87, 88, 112, 110, 108, 109, 80, 79, 81, 89, 90, 91, 92, 99, 100, 101, 164, 165, 166, 167, 168, 82, 76, 75, 77, 78, 74, 73, 72, 71, 70, 67, 66, 65, 64, 63, 62, 60, 61, 118, 117, 115, 116, 113, 114, 111, 121, 120, 119, 157, 158, 159, 160, 175, 161, 162, 163, 126, 125, 124, 123, 122, 127]
[1, 2, 3, 4, 18, 43, 44, 45, 46, 48, 49, 50, 51, 56, 57, 58, 59, 60, 61, 62, 63, 64, 65, 66, 67, 68, 84, 85, 86, 87, 88, 89, 90, 91, 99, 100, 101, 102, 103, 104, 106, 107, 108, 116, 117, 118, 119, 123, 125, 126, 157, 158, 159, 160, 161, 166, 167, 171, 172, 182, 220, 221]
